13
1,4-Dihydropyridine [CAS(4,4)] | RHF/STO-3G optimised, minimum verified (lowest frequency 155 cm-1) | PySCF 2.14.0
N      1.39837136    -0.00000001    -0.28162165
C      0.66081231     1.21162378    -0.03855177
C     -0.64795099     1.25044402     0.05123220
C     -1.51342796    -0.00000005    -0.03938453
C     -0.64795090    -1.25044405     0.05123256
C      0.66081235    -1.21162376    -0.03855135
H      2.31128536     0.00000012     0.19047971
H      1.27883629     2.10100904     0.02106583
H     -1.15232725     2.19614434     0.19157772
H     -2.25504983    -0.00000003     0.76216675
H     -2.07991996    -0.00000007    -0.97537615
H     -1.15232719    -2.19614437     0.19157814
H      1.27883641    -2.10100895     0.02106696
