10
2-Azetidinone [CAS(4,4)] | RHF/STO-3G optimised, minimum verified (lowest frequency 205 cm-1) | PySCF 2.14.0
N     -0.03940598     0.05622743     0.28640176
C      1.38527376     0.02036880     0.01865558
C      1.45197279     1.56981058     0.01334465
C     -0.09924485     1.52458275     0.02583824
O      2.15422414    -0.89639354    -0.13736536
H     -0.66174591    -0.56622956    -0.25007949
H      1.89841892     1.99494671     0.90850040
H      1.90819155     2.00930215    -0.86979306
H     -0.58984094     2.08654508     0.82174783
H     -0.54784348     1.79083959    -0.93323205
