13
beta-Alanine [CAS(4,4)] | RHF/STO-3G optimised (max gradient 6.7e-06 Ha/bohr) | PySCF 2.14.0
N     -0.11031308     0.08049726     0.00000000
C      1.15115293     0.86432726     0.00000000
C      2.43978207     0.00320086     0.00000000
C      3.71337030     0.87299709     0.00000000
O      3.76900662     2.08764845    -0.00000000
O      4.86028330     0.08462606     0.00000000
H      5.60873930     0.73268006    -0.00000000
H     -0.08680888    -0.55101944     0.81755491
H     -0.08680888    -0.55101944    -0.81755491
H      1.15164647     1.50984788     0.87903142
H      1.15164647     1.50984788    -0.87903142
H      2.46915169    -0.64181696     0.87721025
H      2.46915169    -0.64181696    -0.87721025
