13
beta-Amino Acid Cyclization TS | RHF/STO-3G TS optimised with geomeTRIC, imaginary frequency 1390i cm-1 | PySCF 2.14.0
N      1.51127787     1.80060230     0.47664013
C      0.99667024     1.10157583     1.92410581
C     -0.40756836     0.98204355     1.19787609
C      0.10108520     1.82457064     0.00165886
O      1.27475242     1.48423323     3.04391626
H      2.02337898     2.69097337     0.40013187
H     -0.70471416    -0.03189330     0.94304453
H     -1.20196007     1.44836991     1.77322884
H     -0.04346691     1.37653859    -0.98368008
H     -0.31808254     2.83068960    -0.00699855
O      1.90437565    -0.13342188     1.35514216
H      2.00479393     0.63566764     0.51388361
H      1.35226390    -0.91510186     1.11448751
