14
Hydroquinone [CAS(4,4)] | RHF/STO-3G optimised (max gradient 5.9e-06 Ha/bohr) | PySCF 2.14.0
C      1.39478236     0.01145255    -0.00000000
C      0.68040651     1.20829699    -0.00000000
C     -0.70153834     1.19738052    -0.00000000
C     -1.39478236    -0.01145255     0.00000000
C     -0.68040651    -1.20829699     0.00000000
C      0.70153834    -1.19738052    -0.00000000
O      2.79162261    -0.04516439    -0.00000000
H      3.08915602     0.89780328     0.00000000
O     -2.79162261     0.04516439     0.00000000
H     -3.08915602    -0.89780328     0.00000000
H      1.21358210     2.15065758    -0.00000000
H     -1.25942361     2.12448528     0.00000000
H     -1.21358210    -2.15065758     0.00000000
H      1.25942361    -2.12448528     0.00000000
