10
Kinugasa TS | RHF/STO-3G TS optimised with geomeTRIC, imaginary frequency 551i cm-1 | PySCF 2.14.0
C      1.78815784     0.42593964     0.13244668
N      0.50650300     0.39033659    -0.21191337
O     -0.34325963    -0.46776934     0.32792728
H      0.11947651     1.27685404    -0.60735128
H      2.26479156    -0.49723855     0.43043040
H      2.39537363     1.25500493    -0.20990071
C      1.06177525     0.46194926     2.46331435
C      0.00516795    -0.06487735     2.35385458
H      1.96070201     0.93710524     2.77318685
H     -0.94732633    -0.51163705     2.53952519
