12
p-Benzoquinone [CAS(2,2)] | RHF/STO-3G optimised (max gradient 5.1e-06 Ha/bohr) | PySCF 2.14.0
C      1.46363663     0.00000000    -0.00000000
C      0.65855934     1.27938531     0.00000000
C     -0.65855934     1.27938531    -0.00000000
C     -1.46363663     0.00000000    -0.00000000
C     -0.65855934    -1.27938531     0.00000000
C      0.65855934    -1.27938531     0.00000000
O      2.69099048    -0.00000000    -0.00000000
O     -2.69099048    -0.00000000     0.00000000
H      1.22974488     2.20082571    -0.00000000
H     -1.22974488     2.20082571    -0.00000000
H     -1.22974488    -2.20082571    -0.00000000
H      1.22974488    -2.20082571     0.00000000
