11
Pyridine [CAS(2,2)] | RHF/STO-3G optimised (max gradient 7.5e-06 Ha/bohr) | PySCF 2.14.0
N      1.40499223     0.00000000    -0.00000000
C      0.68218367     1.14432115    -0.00000000
C     -0.70505500     1.19028149    -0.00000000
C     -1.41359322    -0.00000000    -0.00000000
C     -0.70505500    -1.19028149     0.00000000
C      0.68218367    -1.14432115    -0.00000000
H      1.25611407     2.06728752    -0.00000000
H     -1.21548109     2.14399156     0.00000000
H     -2.49692232     0.00000000    -0.00000000
H     -1.21548109    -2.14399156     0.00000000
H      1.25611407    -2.06728752    -0.00000000
