10
Staudinger [2+2] TS | RHF/STO-3G TS optimised with geomeTRIC, imaginary frequency 924i cm-1 | PySCF 2.14.0
N     -0.05132669     0.02910947    -0.35646111
C      1.51500420     0.25321195     0.44726166
C      1.73084336     1.59316476     0.07843265
C     -0.55663136     1.18432579     0.03946552
O      1.80327057    -0.58584221     1.24535659
H     -0.01557297    -0.03249610    -1.39234581
H      2.69311807     1.98870115     0.38332302
H      1.46310361     1.88155612    -0.92223210
H     -0.70982153     1.35178397     1.10629296
H     -1.01649809     1.91522493    -0.63101783
